data;
param nombreJob := 5;
param nombreRessource := 3;
param duree := 1 7 2 9 3 4 4 10 5 6;
param capaciteRessource := 1 7 2 10 3 10;
param besoinRessource : 1 2 3 :=
                    1   2 5 9
                    2   2 7 5
                    3   1 7 7
                    4   4 8 9
                    5   1 1 1;
end;

